data;


param d:= 100;
param r:=5;
param p:=0.720000;
param M:=1000;
param U:=
         1         1       -3.200462e-03
         2         1        2.415136e-01
         3         1       -2.284183e-01
         4         1        8.341276e-01
         5         1        1.720114e+00
         6         1       -1.424561e+00
         7         1       -1.297185e+00
         8         1        2.118049e-01
         9         1       -4.262369e-01
        10         1       -7.544421e-01
        11         1        1.100120e-01
        12         1       -1.036743e+00
        13         1       -1.133129e-01
        14         1        2.133915e+00
        15         1        6.331964e-01
        16         1       -1.205466e+00
        17         1        5.781557e-02
        18         1       -6.674309e-01
        19         1       -4.140879e-01
        20         1        2.450368e-02
        21         1        7.983544e-02
        22         1       -1.182815e-01
        23         1       -1.267586e+00
        24         1       -1.716470e+00
        25         1       -1.418182e+00
        26         1       -2.704925e-02
        27         1        2.198707e-01
        28         1        1.655623e+00
        29         1        2.065383e-01
        30         1       -1.243288e+00
        31         1       -9.361624e-01
        32         1        1.099444e+00
        33         1        4.571623e-02
        34         1        1.595941e+00
        35         1        6.482773e-01
        36         1       -1.849898e+00
        37         1       -3.783527e-01
        38         1        1.370725e-01
        39         1        2.520915e-01
        40         1       -2.348986e-01
        41         1        1.108938e+00
        42         1        1.125357e+00
        43         1        9.610780e-01
        44         1        1.027970e+00
        45         1       -7.826026e-01
        46         1        1.713724e+00
        47         1       -2.338385e-01
        48         1        2.922223e-01
        49         1        1.808337e+00
        50         1       -1.412366e+00
        51         1        6.710152e-02
        52         1        9.409234e-01
        53         1       -1.943225e-01
        54         1       -3.765677e-01
        55         1       -1.176685e+00
        56         1       -6.423738e-01
        57         1        1.273608e+00
        58         1       -1.475408e-01
        59         1        4.537304e-01
        60         1       -3.923050e-01
        61         1        1.496517e+00
        62         1        3.688332e-01
        63         1       -7.342849e-02
        64         1        9.871671e-01
        65         1        8.194643e-02
        66         1        3.818680e-01
        67         1        9.149381e-01
        68         1        7.681214e-01
        69         1       -2.186118e+00
        70         1       -1.094847e+00
        71         1       -1.723994e+00
        72         1        1.266145e+00
        73         1       -1.354579e+00
        74         1        6.401023e-01
        75         1        1.605672e-01
        76         1       -1.388244e+00
        77         1       -3.548935e-01
        78         1        7.310010e-01
        79         1       -1.672530e+00
        80         1       -3.095050e-01
        81         1       -1.139727e+00
        82         1        6.556485e-01
        83         1       -1.582049e+00
        84         1        3.397829e-01
        85         1       -7.403613e-01
        86         1        4.570281e-01
        87         1        5.779118e-01
        88         1        3.258789e-01
        89         1        6.572939e-01
        90         1        6.938573e-02
        91         1        1.599843e+00
        92         1        2.149134e-01
        93         1       -9.153194e-01
        94         1        2.723393e-01
        95         1        3.590768e-01
        96         1       -2.220048e-01
        97         1       -1.664592e+00
        98         1        3.204998e-02
        99         1       -3.037445e-01
       100         1       -2.292052e+00
         1         2       -2.786461e+00
         2         2       -1.180296e-01
         3         2        1.915940e+00
         4         2       -1.100107e-01
         5         2       -3.418361e-01
         6         2       -2.034487e+00
         7         2        7.003130e-01
         8         2       -1.633492e+00
         9         2       -5.299135e-01
        10         2        1.364107e-01
        11         2        1.775090e+00
        12         2        3.185858e-01
        13         2       -3.899358e-01
        14         2        8.345144e-01
        15         2        6.817986e-01
        16         2        1.636627e+00
        17         2        1.423699e+00
        18         2        6.287646e-01
        19         2        9.705852e-01
        20         2       -2.622062e-01
        21         2        6.546543e-01
        22         2       -1.624978e-01
        23         2        8.864343e-01
        24         2       -4.434142e-01
        25         2       -5.072937e-01
        26         2        5.165619e-01
        27         2       -1.453566e-01
        28         2       -1.172849e+00
        29         2        1.719648e+00
        30         2       -2.408043e+00
        31         2        2.664050e-02
        32         2        8.750324e-02
        33         2       -1.611549e+00
        34         2       -5.398168e-01
        35         2        4.672366e-01
        36         2       -6.435512e-01
        37         2        7.299534e-01
        38         2       -6.134536e-01
        39         2        6.386418e-01
        40         2        6.001512e-01
        41         2        6.021350e-01
        42         2        4.386667e-01
        43         2       -1.623695e+00
        44         2        6.424140e-01
        45         2        1.109181e-01
        46         2        3.191197e-01
        47         2       -1.711117e+00
        48         2       -5.080277e-01
        49         2       -2.570003e+00
        50         2        8.333917e-01
        51         2       -1.323653e+00
        52         2       -4.209117e-01
        53         2        1.140644e+00
        54         2       -3.757862e-01
        55         2       -1.507475e-01
        56         2        9.537928e-01
        57         2       -1.443503e+00
        58         2       -1.518465e+00
        59         2       -1.224037e+00
        60         2        1.203054e-01
        61         2       -2.525274e-01
        62         2        1.323668e-01
        63         2       -7.939352e-01
        64         2        2.126564e+00
        65         2       -1.673735e+00
        66         2        3.572608e-01
        67         2       -6.223267e-01
        68         2        1.646232e+00
        69         2        2.346864e+00
        70         2       -7.939230e-01
        71         2       -2.011104e-01
        72         2        1.000000e+00
        73         2       -2.356913e+00
        74         2        1.664647e+00
        75         2        2.082045e+00
        76         2       -2.131702e-01
        77         2        7.851428e-01
        78         2        1.983987e-01
        79         2        1.576920e+00
        80         2        9.862121e-01
        81         2        1.141377e+00
        82         2       -1.084345e+00
        83         2        9.058508e-01
        84         2       -6.490423e-01
        85         2       -7.455296e-01
        86         2       -3.652460e-01
        87         2       -1.121133e+00
        88         2        9.400449e-01
        89         2       -8.476720e-01
        90         2       -4.235669e-01
        91         2        6.964324e-01
        92         2        4.852571e-01
        93         2       -2.388463e-01
        94         2       -6.526445e-01
        95         2       -1.517359e-01
        96         2        8.980824e-01
        97         2       -1.152019e+00
        98         2       -9.063421e-01
        99         2       -3.091138e-01
       100         2       -5.053801e-01
         1         3        6.718127e-01
         2         3        1.711111e-01
         3         3       -6.676243e-01
         4         3       -8.303642e-01
         5         3        9.426597e-02
         6         3       -3.979728e-01
         7         3        1.446385e-01
         8         3        1.799448e+00
         9         3       -2.857649e-01
        10         3        4.382856e-01
        11         3       -3.836414e-01
        12         3       -6.020769e-01
        13         3       -2.653722e-01
        14         3        1.007244e+00
        15         3        5.591150e-01
        16         3        1.427185e+00
        17         3        3.894523e-01
        18         3        9.695899e-01
        19         3       -2.002639e-01
        20         3        7.550099e-01
        21         3        2.400881e-01
        22         3        4.483200e-01
        23         3        1.293833e+00
        24         3        1.094504e+00
        25         3        1.302474e-01
        26         3        4.143674e-02
        27         3       -1.142860e+00
        28         3        1.231032e-01
        29         3       -9.963345e-02
        30         3        1.193024e+00
        31         3        6.711123e-01
        32         3        1.431615e+00
        33         3        1.109005e+00
        34         3        9.123494e-01
        35         3       -1.342019e+00
        36         3        1.569032e+00
        37         3       -3.536186e-01
        38         3        1.335943e+00
        39         3        1.934186e-01
        40         3        3.475316e-01
        41         3       -1.704170e-01
        42         3       -6.511717e-01
        43         3        2.319764e+00
        44         3       -5.513495e-01
        45         3       -6.003803e-01
        46         3        7.236278e-01
        47         3       -1.386247e-01
        48         3        1.432486e+00
        49         3       -9.307140e-01
        50         3       -4.490096e-01
        51         3        1.616415e+00
        52         3       -1.241818e+00
        53         3       -8.142314e-01
        54         3        1.625866e-01
        55         3       -9.884202e-01
        56         3        1.392498e+00
        57         3       -4.327329e-01
        58         3       -6.673244e-01
        59         3        1.496929e+00
        60         3        8.534870e-01
        61         3       -4.129083e-01
        62         3        7.382103e-02
        63         3       -3.601256e-01
        64         3       -9.440311e-01
        65         3        1.995271e-01
        66         3        8.657279e-02
        67         3       -9.799337e-01
        68         3       -1.954905e-01
        69         3       -1.364330e-01
        70         3       -1.405468e+00
        71         3       -5.197139e-01
        72         3        5.744461e-01
        73         3        1.533322e-02
        74         3       -1.046500e+00
        75         3        3.524963e-01
        76         3       -1.025778e+00
        77         3        7.403829e-01
        78         3       -9.547766e-02
        79         3        3.769021e-02
        80         3        4.947063e-01
        81         3        2.781833e+00
        82         3       -1.026149e+00
        83         3       -8.483096e-01
        84         3        6.646380e-01
        85         3       -2.292225e-01
        86         3        9.547802e-01
        87         3       -7.832320e-01
        88         3        2.443860e-01
        89         3       -1.191504e+00
        90         3        4.734885e-01
        91         3        5.812025e-01
        92         3        1.724376e+00
        93         3       -1.453698e+00
        94         3        1.638630e-01
        95         3        7.497366e-02
        96         3        5.691715e-01
        97         3        7.931932e-01
        98         3       -1.408896e+00
        99         3        7.554251e-01
       100         3        2.673635e-01
         1         4        3.971301e-01
         2         4       -1.014020e+00
         3         4       -3.970793e-01
         4         4        2.298995e-01
         5         4        2.217329e+00
         6         4       -6.093209e-01
         7         4       -1.542842e-02
         8         4       -6.243895e-01
         9         4       -1.322273e+00
        10         4       -1.954284e-01
        11         4       -1.347843e+00
        12         4        5.222146e-03
        13         4        6.117627e-01
        14         4        6.288084e-01
        15         4        7.186738e-01
        16         4       -1.323237e-01
        17         4       -4.346021e-01
        18         4       -7.759335e-01
        19         4        3.778746e-01
        20         4       -9.821240e-01
        21         4       -7.288874e-01
        22         4       -5.305243e-01
        23         4        4.127784e-01
        24         4       -1.769167e+00
        25         4        9.206553e-01
        26         4       -3.586421e-01
        27         4       -7.823657e-01
        28         4       -1.216402e+00
        29         4       -1.810300e+00
        30         4        8.523998e-01
        31         4       -1.410122e+00
        32         4       -6.612815e-01
        33         4       -3.505910e-01
        34         4       -3.930105e-01
        35         4        6.089870e-01
        36         4       -2.022238e+00
        37         4        3.758984e-01
        38         4        6.278610e-01
        39         4        1.808387e-01
        40         4        1.571476e+00
        41         4        6.439145e-01
        42         4       -3.377032e-01
        43         4        1.387422e+00
        44         4        1.055697e+00
        45         4        1.632764e+00
        46         4       -1.357331e+00
        47         4        2.471487e-01
        48         4        6.703288e-01
        49         4       -6.112820e-01
        50         4        1.870180e+00
        51         4        7.900433e-01
        52         4       -1.423953e-02
        53         4        3.737010e-01
        54         4        1.005631e+00
        55         4       -6.953597e-01
        56         4        7.716114e-01
        57         4        2.784482e-01
        58         4       -1.039565e-01
        59         4       -1.900012e+00
        60         4       -1.328318e+00
        61         4       -1.650523e-01
        62         4       -8.829667e-01
        63         4       -3.722911e-01
        64         4        1.481621e+00
        65         4       -2.397759e+00
        66         4        1.624307e+00
        67         4       -8.845578e-02
        68         4       -1.181700e+00
        69         4       -9.064651e-01
        70         4        1.479094e+00
        71         4        8.705246e-01
        72         4       -3.248101e-01
        73         4       -6.694759e-01
        74         4        1.917717e+00
        75         4       -6.316561e-01
        76         4        7.555536e-01
        77         4       -6.098859e-01
        78         4       -8.685854e-02
        79         4        1.534800e+00
        80         4        8.916231e-01
        81         4       -1.742424e-01
        82         4        1.200019e-02
        83         4        1.360357e-01
        84         4        5.172950e-01
        85         4        1.606204e-01
        86         4       -2.222372e+00
        87         4       -7.196288e-01
        88         4       -5.530245e-02
        89         4       -1.361067e-01
        90         4        1.237610e+00
        91         4       -4.143003e-01
        92         4        1.859602e+00
        93         4       -8.957250e-01
        94         4        7.359899e-01
        95         4       -1.837390e-03
        96         4       -3.494117e-01
        97         4       -9.146478e-01
        98         4        1.063627e-01
        99         4       -4.373219e-01
       100         4       -1.684576e+00
         1         5       -5.406487e-01
         2         5       -4.811608e-01
         3         5       -1.120237e-01
         4         5       -2.894015e-01
         5         5        1.268854e+00
         6         5       -4.873847e-01
         7         5       -1.374668e+00
         8         5        8.888102e-01
         9         5        3.422179e-02
        10         5        2.560234e-01
        11         5       -4.726590e-02
        12         5        5.144390e-01
        13         5        1.074733e+00
        14         5        8.778570e-01
        15         5        7.446369e-01
        16         5       -1.385785e+00
        17         5       -2.011964e-02
        18         5       -1.459180e+00
        19         5        6.984862e-01
        20         5        2.186657e-01
        21         5       -1.645730e+00
        22         5       -3.865633e-01
        23         5        2.621971e-01
        24         5       -8.990895e-02
        25         5       -8.720261e-01
        26         5        1.595328e-02
        27         5        1.291362e-02
        28         5        1.619674e+00
        29         5        1.213827e+00
        30         5       -1.824562e+00
        31         5        4.507956e-01
        32         5       -3.178397e-01
        33         5       -6.746690e-01
        34         5       -1.246894e+00
        35         5       -7.700158e-01
        36         5        7.933743e-01
        37         5        1.037959e+00
        38         5        3.446701e-01
        39         5       -3.555675e-01
        40         5        2.700071e+00
        41         5       -8.958098e-01
        42         5        1.617862e+00
        43         5       -7.657451e-02
        44         5       -1.231334e+00
        45         5       -7.479000e-02
        46         5        1.774161e+00
        47         5       -6.986313e-02
        48         5       -1.188800e-02
        49         5       -7.744863e-01
        50         5       -1.335841e+00
        51         5        5.953874e-01
        52         5        1.000503e+00
        53         5        1.320070e+00
        54         5        5.177450e-01
        55         5        9.088123e-01
        56         5       -3.569275e-02
        57         5       -2.691376e+00
        58         5       -1.512823e+00
        59         5        1.106325e+00
        60         5        8.079756e-01
        61         5        6.004894e-01
        62         5       -8.687660e-01
        63         5       -4.030382e-01
        64         5       -1.307842e+00
        65         5        1.050913e+00
        66         5        7.946117e-02
        67         5        3.726054e-01
        68         5       -2.516747e-01
        69         5       -1.002058e+00
        70         5        4.789510e-01
        71         5       -3.643459e-01
        72         5       -5.519602e-01
        73         5        6.501957e-01
        74         5        1.007849e-01
        75         5        4.143870e-01
        76         5       -9.359428e-01
        77         5       -4.566025e-01
        78         5        3.834745e-02
        79         5        1.769264e+00
        80         5       -4.821087e-01
        81         5       -1.168554e+00
        82         5        8.457407e-01
        83         5       -9.605885e-03
        84         5       -2.402733e+00
        85         5       -1.009398e-01
        86         5       -2.304806e+00
        87         5       -6.193974e-01
        88         5        8.842796e-01
        89         5       -1.067710e+00
        90         5       -1.591534e+00
        91         5       -3.350011e-01
        92         5        6.872069e-01
        93         5       -3.960388e-01
        94         5        2.514522e-02
        95         5        5.050511e-01
        96         5        2.959064e+00
        97         5       -4.435621e-01
        98         5       -1.638235e+00
        99         5       -1.432841e+00
       100         5        1.655027e+00
;

param theta:=
    1       -1.168084e+00
    2        4.520684e-01
    3        2.548108e+00
    4        4.875216e-01
    5       -4.348426e-01
;
param X_true:=
    1        8.846253e-01
    2       -1.845834e-01
    3       -7.131030e-01
    4       -2.901996e+00
    5       -1.394328e+00
    6       -3.549187e-01
    7        2.790608e+00
    8        2.908437e+00
    9       -1.129354e+00
   10        1.853112e+00
   11       -9.401499e-01
   12       -4.002856e-01
   13       -8.892079e-01
   14        3.760592e-01
   15        1.019847e+00
   16        6.322661e+00
   17        1.365313e+00
   18        3.790709e+00
   19        2.926568e-01
   20        1.202797e+00
   21        1.174749e+00
   22        1.116523e+00
   23        5.265426e+00
   24        3.770031e+00
   25        2.587143e+00
   26        1.889195e-01
   27       -3.621706e+00
   28       -3.447761e+00
   29       -1.128117e+00
   30        4.612579e+00
   31        1.932136e+00
   32        2.219045e+00
   33        2.166388e+00
   34        5.671394e-01
   35       -3.333899e+00
   36        4.537092e+00
   37       -3.972118e-01
   38        3.122911e+00
   39        7.298757e-01
   40        1.023261e+00
   41       -7.539089e-01
   42       -3.643614e+00
   43        4.764064e+00
   44       -1.265127e+00
   45        2.629842e-01
   46       -1.446838e+00
   47       -7.027596e-01
   48        3.411094e+00
   49       -5.606900e+00
   50        2.375022e+00
   51        3.568302e+00
   52       -4.895648e+00
   53       -1.723951e+00
   54        9.493991e-01
   55       -1.946476e+00
   56        5.121460e+00
   57       -1.936819e+00
   58       -1.607366e+00
   59        1.323619e+00
   60        1.688482e+00
   61       -3.255938e+00
   62       -2.355743e-01
   63       -1.197023e+00
   64       -1.306208e+00
   65       -1.969888e+00
   66        6.933808e-01
   67       -4.052185e+00
   68       -1.117817e+00
   69        3.260684e+00
   70       -2.148495e+00
   71        1.181400e+00
   72        5.185191e-01
   73       -5.327025e-02
   74       -1.770652e+00
   75        1.163730e+00
   76       -3.132379e-01
   77        2.557277e+00
   78       -1.066489e+00
   79        2.741467e+00
   80        2.712255e+00
   81        9.358879e+00
   82       -4.232703e+00
   83        1.663863e-01
   84        2.300266e+00
   85        6.588906e-02
   86        1.652693e+00
   87       -3.259132e+00
   88        2.555490e-01
   89       -3.789131e+00
   90        2.229399e+00
   91       -1.292573e-01
   92        4.969997e+00
   93       -3.007455e+00
   94        1.522620e-01
   95       -5.174995e-01
   96        6.585523e-01
   97        3.191703e+00
   98       -3.272957e+00
   99        2.549820e+00
  100        1.589171e+00
;
param X:=
    1       -1.730009e+00
    2       -1.845834e-01
    3       -7.131030e-01
    4       -1.072414e+00
    5        6.754535e-02
    6        1.509939e-01
    7        2.790608e+00
    8        2.908437e+00
    9        1.083403e+00
   10        2.042251e-02
   11       -1.006994e+00
   12        4.552208e-01
   13       -1.574429e+00
   14        4.801012e-01
   15       -5.849190e-01
   16        6.322661e+00
   17        1.365313e+00
   18        3.790709e+00
   19        8.210869e-01
   20       -9.545303e-01
   21        1.174749e+00
   22       -7.643162e-02
   23       -8.010179e-01
   24        8.689680e-01
   25       -2.568551e-01
   26       -8.121285e-01
   27        5.679496e-01
   28       -8.224281e-01
   29       -1.128117e+00
   30        1.625129e+00
   31       -5.398886e-01
   32        7.804931e-01
   33        6.131829e-01
   34        5.671394e-01
   35       -1.248350e-01
   36        3.285862e+00
   37        1.018175e+00
   38        3.116809e-01
   39        1.125914e+00
   40       -2.142312e+00
   41        1.867901e+00
   42        1.266006e+00
   43       -1.380940e-01
   44        2.121700e+00
   45        2.629842e-01
   46        5.472319e-01
   47        6.430269e-01
   48        3.411094e+00
   49        1.475799e-01
   50       -9.467701e-01
   51        2.008849e-01
   52       -8.208478e-01
   53        3.963070e-01
   54       -1.126800e+00
   55       -1.946476e+00
   56        1.542001e+00
   57       -1.936819e+00
   58       -1.243230e+00
   59        1.323619e+00
   60       -1.930050e+00
   61       -3.255938e+00
   62       -2.816801e-02
   63        1.403523e+00
   64       -2.555849e+00
   65        2.353232e-01
   66        3.682629e-01
   67       -4.052185e+00
   68       -2.534205e+00
   69       -4.794042e-01
   70       -2.148495e+00
   71        1.181400e+00
   72        5.185191e-01
   73       -8.113356e-01
   74        2.467486e-01
   75        1.163730e+00
   76        1.048614e-01
   77       -1.204422e+00
   78       -3.535612e-01
   79       -1.102173e-01
   80        2.712255e+00
   81       -4.027540e-01
   82       -4.232703e+00
   83        2.108684e-01
   84       -2.630965e+00
   85       -6.096270e-01
   86        1.652693e+00
   87       -3.259132e+00
   88        2.555490e-01
   89        2.260145e-01
   90        1.215921e+00
   91       -1.292573e-01
   92        3.247204e-01
   93        9.894271e-03
   94        1.626060e+00
   95       -9.949194e-01
   96        8.158852e-01
   97        1.182809e+00
   98        1.098724e+00
   99        1.284994e+00
  100        1.589171e+00
;
param outliervec:=
    1    1
    2    0
    3    0
    4    1
    5    1
    6    1
    7    0
    8    0
    9    1
   10    1
   11    1
   12    1
   13    1
   14    1
   15    1
   16    0
   17    0
   18    0
   19    1
   20    1
   21    0
   22    1
   23    1
   24    1
   25    1
   26    1
   27    1
   28    1
   29    0
   30    1
   31    1
   32    1
   33    1
   34    0
   35    1
   36    1
   37    1
   38    1
   39    1
   40    1
   41    1
   42    1
   43    1
   44    1
   45    0
   46    1
   47    1
   48    0
   49    1
   50    1
   51    1
   52    1
   53    1
   54    1
   55    0
   56    1
   57    0
   58    1
   59    0
   60    1
   61    0
   62    1
   63    1
   64    1
   65    1
   66    1
   67    0
   68    1
   69    1
   70    0
   71    0
   72    0
   73    1
   74    1
   75    0
   76    1
   77    1
   78    1
   79    1
   80    0
   81    1
   82    0
   83    1
   84    1
   85    1
   86    0
   87    0
   88    0
   89    1
   90    1
   91    0
   92    1
   93    1
   94    1
   95    1
   96    1
   97    1
   98    1
   99    1
  100    0
;